assets/logs/19_8x8_clingo/19_8x8_clingo.solution.log

---------------------------------
|  9| 27|  6|  0|  5| 39| 10|  0|
---------------------------------
|  4| 50|  7|  0|  8| 33|  3| 37|
---------------------------------
| 25| 11| 29| 48| 41| 12|  0| 47|
---------------------------------
|  0|  2|  0| 14| 31| 45| 35|  1|
---------------------------------
| 13| 23|  0| 43| 46| 16| 49| 20|
---------------------------------
|  0| 34| 28| 17| 40| 22|  0|  0|
---------------------------------
| 21| 15| 38| 32| 26| 44| 18| 51|
---------------------------------
| 36| 30| 19| 42|  0|  0| 24|  0|
---------------------------------

| n = 8 | k = 10 | coverage = 60, 93.75%
 Time 300.005
 Name 19_8x8_clingo

