assets/logs/19_8x8_clingo/19_8x8_clingo.log
clingo version 5.4.0
Reading from ...ets/logs/19_8x8_clingo/knights_tour.lp ...
Solving...
Answer: 1
occ(1,6,1) occ(1,8,5) occ(1,6,7) occ(1,4,3) occ(1,4,1) occ(1,8,6) occ(1,3,7) occ(1,5,3) occ(1,1,8) occ(1,1,4) occ(2,4,8) occ(3,4,2) coverage(6)
Optimization: -6
Answer: 2
occ(1,6,1) occ(1,8,5) occ(1,6,7) occ(1,4,3) occ(1,4,1) occ(1,8,6) occ(1,3,7) occ(1,5,3) occ(1,1,8) occ(1,1,4) occ(2,4,8) occ(3,4,2) coverage(23) occ(6,1,7) occ(7,1,5) occ(28,1,2) occ(38,1,3) occ(5,2,3) occ(8,2,5) occ(9,2,7) occ(30,2,4) occ(36,2,1) occ(42,2,6) occ(4,3,6) occ(11,3,5) occ(12,3,2) occ(26,3,1) occ(34,3,3) occ(40,3,4) occ(10,4,4) occ(32,4,5) occ(44,4,7) occ(13,5,6) occ(14,5,1) occ(24,5,2) occ(48,5,4) occ(17,6,5) occ(18,6,4) occ(46,6,6) occ(50,6,2) occ(56,6,3) occ(15,7,7) occ(16,7,2) occ(19,7,3) occ(22,7,1) occ(52,7,4) occ(58,7,5) occ(20,8,3) occ(21,8,1) occ(54,8,2) occ(60,8,7)
Optimization: -23
Answer: 3
occ(1,6,1) occ(1,8,5) occ(1,6,7) occ(1,4,3) occ(1,4,1) occ(1,8,6) occ(1,3,7) occ(1,5,3) occ(1,1,8) occ(1,1,4) occ(2,4,8) occ(3,4,2) coverage(27) occ(6,1,5) occ(7,1,3) occ(10,1,1) occ(32,1,2) occ(4,2,7) occ(5,2,1) occ(8,2,3) occ(28,2,5) occ(34,2,4) occ(9,3,4) occ(12,3,2) occ(15,3,5) occ(30,3,3) occ(11,4,6) occ(26,4,4) occ(36,4,5) occ(40,4,7) occ(13,5,4) occ(14,5,1) occ(17,5,6) occ(23,5,7) occ(24,5,2) occ(18,6,4) occ(21,6,5) occ(38,6,6) occ(42,6,8) occ(16,7,2) occ(19,7,7) occ(22,7,1) occ(25,7,8) occ(46,7,5) occ(20,8,3) occ(44,8,7)
Optimization: -27
Answer: 4
occ(1,6,1) occ(1,8,5) occ(1,6,7) occ(1,4,3) occ(1,4,1) occ(1,8,6) occ(1,3,7) occ(1,5,3) occ(1,1,8) occ(1,1,4) occ(2,4,8) occ(3,4,2) coverage(37) occ(6,1,5) occ(7,1,3) occ(10,1,1) occ(11,1,7) occ(28,1,2) occ(29,1,6) occ(4,2,7) occ(5,2,1) occ(8,2,3) occ(9,2,5) occ(27,2,8) occ(12,3,2) occ(13,3,8) occ(25,3,6) occ(26,3,1) occ(30,3,3) occ(31,3,5) occ(15,4,6) occ(23,4,4) occ(32,4,5) occ(40,4,7) occ(14,5,1) occ(17,5,8) occ(24,5,2) occ(33,5,4) occ(34,5,7) occ(18,6,4) occ(21,6,5) occ(35,6,2) occ(38,6,6) occ(42,6,8) occ(16,7,2) occ(19,7,7) occ(22,7,1) occ(36,7,8) occ(46,7,5) occ(20,8,3) occ(44,8,7)
Optimization: -37
Answer: 5
occ(1,6,1) occ(1,8,5) occ(1,6,7) occ(1,4,3) occ(1,4,1) occ(1,8,6) occ(1,3,7) occ(1,5,3) occ(1,1,8) occ(1,1,4) occ(2,4,8) occ(3,4,2) coverage(39) occ(6,1,5) occ(7,1,3) occ(10,1,1) occ(11,1,7) occ(28,1,2) occ(33,1,6) occ(4,2,7) occ(5,2,1) occ(8,2,3) occ(9,2,5) occ(35,2,8) occ(12,3,2) occ(13,3,8) occ(26,3,1) occ(30,3,3) occ(31,3,5) occ(37,3,6) occ(15,4,6) occ(32,4,5) occ(40,4,7) occ(14,5,1) occ(24,5,2) occ(29,5,4) occ(34,5,7) occ(17,6,5) occ(18,6,4) occ(21,6,3) occ(27,6,2) occ(38,6,6) occ(42,6,8) occ(16,7,2) occ(22,7,1) occ(25,7,4) occ(36,7,8) occ(46,7,5) occ(19,8,4) occ(20,8,3) occ(23,8,2) occ(44,8,7)
Optimization: -39
Answer: 6
occ(1,6,1) occ(1,8,5) occ(1,6,7) occ(1,4,3) occ(1,4,1) occ(1,8,6) occ(1,3,7) occ(1,5,3) occ(1,1,8) occ(1,1,4) occ(2,4,8) occ(3,4,2) coverage(48) occ(6,1,5) occ(7,1,3) occ(10,1,1) occ(11,1,7) occ(28,1,2) occ(4,2,7) occ(5,2,1) occ(8,2,3) occ(9,2,5) occ(30,2,4) occ(51,2,2) occ(12,3,2) occ(13,3,8) occ(25,3,6) occ(26,3,1) occ(34,3,3) occ(49,3,4) occ(15,4,6) occ(23,4,4) occ(32,4,5) occ(40,4,7) occ(14,5,1) occ(17,5,8) occ(21,5,6) occ(24,5,2) occ(27,5,7) occ(36,5,4) occ(47,5,5) occ(18,6,4) occ(29,6,5) occ(35,6,2) occ(38,6,6) occ(41,6,3) occ(42,6,8) occ(16,7,2) occ(19,7,7) occ(22,7,1) occ(31,7,3) occ(37,7,4) occ(45,7,6) occ(46,7,5) occ(20,8,3) occ(33,8,1) occ(39,8,2) occ(43,8,4) occ(44,8,7)
Optimization: -48
Answer: 7
occ(1,6,1) occ(1,8,5) occ(1,6,7) occ(1,4,3) occ(1,4,1) occ(1,8,6) occ(1,3,7) occ(1,5,3) occ(1,1,8) occ(1,1,4) occ(2,4,8) occ(3,4,2) coverage(49) occ(6,1,5) occ(7,1,3) occ(10,1,1) occ(28,1,2) occ(33,1,6) occ(34,1,7) occ(4,2,7) occ(5,2,1) occ(8,2,3) occ(11,2,6) occ(32,2,5) occ(35,2,8) occ(50,2,4) occ(9,3,4) occ(12,3,2) occ(13,3,8) occ(26,3,1) occ(30,3,3) occ(31,3,5) occ(36,3,6) occ(15,4,6) occ(37,4,7) occ(38,4,4) occ(48,4,5) occ(14,5,1) occ(17,5,4) occ(24,5,2) occ(25,5,8) occ(29,5,6) occ(43,5,5) occ(46,5,7) occ(18,6,4) occ(23,6,6) occ(39,6,8) occ(40,6,3) occ(44,6,5) occ(47,6,2) occ(16,7,2) occ(19,7,5) occ(22,7,1) occ(27,7,7) occ(41,7,6) occ(45,7,4) occ(20,8,3) occ(21,8,7) occ(42,8,4)
Optimization: -49
Answer: 8
occ(1,6,1) occ(1,8,5) occ(1,6,7) occ(1,4,3) occ(1,4,1) occ(1,8,6) occ(1,3,7) occ(1,5,3) occ(1,1,8) occ(1,1,4) occ(2,4,8) occ(3,4,2) coverage(52) occ(6,1,5) occ(7,1,3) occ(10,1,1) occ(28,1,2) occ(33,1,6) occ(34,1,7) occ(4,2,7) occ(5,2,1) occ(8,2,3) occ(11,2,6) occ(32,2,5) occ(35,2,8) occ(50,2,4) occ(9,3,4) occ(12,3,2) occ(13,3,8) occ(26,3,1) occ(30,3,3) occ(31,3,5) occ(36,3,6) occ(15,4,6) occ(37,4,7) occ(38,4,4) occ(48,4,5) occ(14,5,1) occ(17,5,4) occ(24,5,2) occ(25,5,8) occ(29,5,6) occ(43,5,5) occ(46,5,7) occ(18,6,4) occ(23,6,6) occ(39,6,8) occ(40,6,3) occ(44,6,5) occ(47,6,2) occ(16,7,2) occ(19,7,5) occ(22,7,1) occ(27,7,7) occ(41,7,6) occ(45,7,4) occ(51,7,3) occ(20,8,3) occ(21,8,7) occ(42,8,4) occ(49,8,1)
Optimization: -52
Answer: 9
occ(1,6,1) occ(1,8,5) occ(1,6,7) occ(1,4,3) occ(1,4,1) occ(1,8,6) occ(1,3,7) occ(1,5,3) occ(1,1,8) occ(1,1,4) occ(2,4,8) occ(3,4,2) coverage(53) occ(6,1,5) occ(7,1,3) occ(10,1,1) occ(11,1,7) occ(28,1,2) occ(40,1,6) occ(4,2,7) occ(5,2,1) occ(8,2,3) occ(9,2,5) occ(34,2,6) occ(38,2,8) occ(51,2,2) occ(12,3,2) occ(13,3,6) occ(26,3,1) occ(30,3,3) occ(42,3,5) occ(48,3,8) occ(49,3,4) occ(15,4,4) occ(32,4,5) occ(36,4,7) occ(46,4,6) occ(14,5,1) occ(17,5,6) occ(21,5,8) occ(24,5,2) occ(44,5,4) occ(47,5,5) occ(50,5,7) occ(18,6,4) occ(23,6,6) occ(29,6,3) occ(35,6,2) occ(41,6,5) occ(16,7,2) occ(19,7,7) occ(22,7,1) occ(27,7,5) occ(33,7,4) occ(39,7,3) occ(45,7,6) occ(52,7,8) occ(20,8,3) occ(25,8,7) occ(31,8,2) occ(37,8,1) occ(43,8,4)
Optimization: -53
*** Info : (clingo): INTERRUPTED by signal!
SATISFIABLE

TIME LIMIT   : 1
Models       : 9+
  Optimum    : unknown
Optimization : -53
Calls        : 1
Time         : 300.000s (Solving: 299.71s 1st Model: 0.00s Unsat: 0.00s)
CPU Time     : 300.005s
